Version identifier: 20.1.0.0 | 2020-11-10 | 9bedb6d68
Tried aggregator 8 times.
MIP Presolve eliminated 583 rows and 387 columns.
MIP Presolve added 2 rows and 2 columns.
MIP Presolve modified 600 coefficients.
Aggregator did 98 substitutions.
Reduced MIP has 4 rows, 8 columns, and 12 nonzeros.
Reduced MIP has 2 binaries, 6 generals, 0 SOSs, and 0 indicators.
Presolve time = 0.00 sec. (1.62 ticks)
Found incumbent of value 20.000000 after 0.00 sec. (1.69 ticks)
Probing time = 0.00 sec. (0.00 ticks)
Tried aggregator 1 time.
MIP Presolve eliminated 3 rows and 5 columns.
MIP Presolve added 1 rows and 1 columns.
Reduced MIP has 2 rows, 4 columns, and 6 nonzeros.
Reduced MIP has 2 binaries, 2 generals, 0 SOSs, and 0 indicators.
Presolve time = 0.00 sec. (0.01 ticks)
Probing time = 0.00 sec. (0.00 ticks)
Tried aggregator 1 time.
MIP Presolve eliminated 1 rows and 1 columns.
MIP Presolve added 1 rows and 1 columns.
Reduced MIP has 2 rows, 4 columns, and 6 nonzeros.
Reduced MIP has 2 binaries, 2 generals, 0 SOSs, and 0 indicators.
Presolve time = 0.00 sec. (0.00 ticks)
Probing time = 0.00 sec. (0.00 ticks)
MIP emphasis: balance optimality and feasibility.
MIP search method: dynamic search.
Parallel mode: deterministic, using up to 24 threads.
Root relaxation solution time = 0.00 sec. (0.00 ticks)

        Nodes                                         Cuts/
   Node  Left     Objective  IInf  Best Integer    Best Bound    ItCnt     Gap

*     0+    0                            4.0000        3.0000            25.00%
      0     0        cutoff              4.0000                      1    0.00%

Root node processing (before b&c):
  Real time             =    0.01 sec. (2.79 ticks)
Parallel b&c, 24 threads:
  Real time             =    0.00 sec. (0.00 ticks)
  Sync time (average)   =    0.00 sec.
  Wait time (average)   =    0.00 sec.
                          ------------
Total (root+branch&cut) =    0.01 sec. (2.79 ticks)

Solution status = Optimal
Solution LB = 4
Solution UB = 4
Runtime = 0.0167489 seconds
	Command being timed: "/home/min/git_repos/CS598MEBProject/CNT-ILP/build/cnt -s 2 ./output/k4_n20/simC_c1_k4_n20_u3_s3_del02.input-left.cnp"
	User time (seconds): 0.02
	System time (seconds): 0.01
	Percent of CPU this job got: 70%
	Elapsed (wall clock) time (h:mm:ss or m:ss): 0:00.04
	Average shared text size (kbytes): 0
	Average unshared data size (kbytes): 0
	Average stack size (kbytes): 0
	Average total size (kbytes): 0
	Maximum resident set size (kbytes): 20712
	Average resident set size (kbytes): 0
	Major (requiring I/O) page faults: 0
	Minor (reclaiming a frame) page faults: 2183
	Voluntary context switches: 212
	Involuntary context switches: 1
	Swaps: 0
	File system inputs: 0
	File system outputs: 16
	Socket messages sent: 0
	Socket messages received: 0
	Signals delivered: 0
	Page size (bytes): 4096
	Exit status: 0
